p cnf 912 2319
a 1 2 3 4 5 6 7 8 9 10 11 12 13 14 15 16 17 18 19 20 21 22 23 24 25 26 27 28 29 30 31 32 33 34 35 36 37 38 39 40 41 42 43 44 45 46 47 48 49 50 51 52 53 54 55 56 57 58 59 60 61 62 63 64 65 66 67 68 69 70 71 72 73 74 75 76 77 78 79 80 81 82 83 84 85 86 87 88 89 90 91 92 93 94 95 96 97 98 99 100 101 102 103 104 105 106 107 108 109 110 111 112 113 114 115 116 117 118 119 120 121 122 123 124 125 126 127 128 0
e 129 130 131 132 133 134 135 136 137 138 139 140 141 142 143 144 145 146 147 148 149 150 151 152 153 154 155 156 157 158 159 160 161 162 163 164 165 166 167 168 169 170 171 172 173 174 175 176 177 178 179 180 181 182 183 184 185 186 187 188 189 190 191 192 193 194 195 196 197 198 199 200 201 202 203 204 205 206 207 208 209 210 211 212 213 214 215 216 217 218 219 220 221 222 223 224 225 226 227 228 229 230 231 232 233 234 235 236 237 238 239 240 241 242 243 244 245 246 247 248 249 250 251 252 253 254 255 256 257 258 259 260 261 262 263 264 265 266 267 268 269 270 271 272 273 274 275 276 277 278 279 280 281 282 283 284 285 286 287 288 289 290 291 292 293 294 295 296 297 298 299 300 301 302 303 304 305 306 307 308 309 310 311 312 313 314 315 316 317 318 319 320 321 322 323 324 325 326 327 328 329 330 331 332 333 334 335 336 337 338 339 340 341 342 343 344 345 346 347 348 349 350 351 352 353 354 355 356 357 358 359 360 361 362 363 364 365 366 367 368 369 370 371 372 373 374 375 376 377 378 379 380 381 382 383 384 385 386 387 388 389 390 391 392 393 394 395 396 397 398 399 400 401 402 403 404 405 406 407 408 409 410 411 412 413 414 415 416 417 418 419 420 421 422 423 424 425 426 427 428 429 430 431 432 433 434 435 436 437 438 439 440 441 442 443 444 445 446 447 448 449 450 451 452 453 454 455 456 457 458 459 460 461 462 463 464 465 466 467 468 469 470 471 472 473 474 475 476 477 478 479 480 481 482 483 484 485 486 487 488 489 490 491 492 493 494 495 496 497 498 499 500 501 502 503 504 505 506 507 508 509 510 511 512 513 514 515 516 517 518 519 520 521 522 523 524 525 526 527 528 529 530 531 532 533 534 535 536 537 538 539 540 541 542 543 544 545 546 547 548 549 550 551 552 553 554 555 556 557 558 559 560 561 562 563 564 565 566 567 568 569 570 571 572 573 574 575 576 577 578 579 580 581 582 583 584 585 586 587 588 589 590 591 592 593 594 595 596 597 598 599 600 601 602 603 604 605 606 607 608 609 610 611 612 613 614 615 616 617 618 619 620 621 622 623 624 625 626 627 628 629 630 631 632 633 634 635 636 637 638 639 640 641 642 643 644 645 646 647 648 649 650 651 652 653 654 655 656 657 658 659 660 661 662 663 664 665 666 667 668 669 670 671 672 673 674 675 676 677 678 679 680 681 682 683 684 685 686 687 688 689 690 691 692 693 694 695 696 697 698 699 700 701 702 703 704 705 706 707 708 709 710 711 712 713 714 715 716 717 718 719 720 721 722 723 724 725 726 727 728 729 730 731 732 733 734 735 736 737 738 739 740 741 742 743 744 745 746 747 748 749 750 751 752 753 754 755 756 757 758 759 760 761 762 763 764 765 766 767 768 769 770 771 772 773 774 775 776 777 778 779 780 781 782 783 784 785 786 787 788 789 790 791 792 793 794 795 796 797 798 799 800 801 802 803 804 805 806 807 808 809 810 811 812 813 814 815 816 817 818 819 820 821 822 823 824 825 826 827 828 829 830 831 832 833 834 835 836 837 838 839 840 841 842 843 844 845 846 847 848 849 850 851 852 853 854 855 856 857 858 859 860 861 862 863 864 865 866 867 868 869 870 871 872 873 874 875 876 877 878 879 880 881 882 883 884 885 886 887 888 889 890 891 892 893 894 895 896 897 898 899 900 901 902 903 904 905 906 907 908 909 910 0
161 129 0
-161 -129 0
162 130 -161 0
-162 161 0
-162 -130 0
163 -162 0
-163 162 0
164 131 -163 0
-164 163 0
-164 -131 0
165 -164 0
-165 164 0
166 132 -165 0
-166 165 0
-166 -132 0
167 -166 0
-167 166 0
168 133 -167 0
-168 167 0
-168 -133 0
169 -168 0
-169 168 0
170 134 -169 0
-170 169 0
-170 -134 0
171 -170 0
-171 170 0
172 135 -171 0
-172 171 0
-172 -135 0
173 -172 0
-173 172 0
174 136 -173 0
-174 173 0
-174 -136 0
175 -174 0
-175 174 0
176 137 -175 0
-176 175 0
-176 -137 0
177 -176 0
-177 176 0
178 138 -177 0
-178 177 0
-178 -138 0
179 -178 0
-179 178 0
180 139 -179 0
-180 179 0
-180 -139 0
181 -180 0
-181 180 0
182 140 -181 0
-182 181 0
-182 -140 0
183 -182 0
-183 182 0
184 141 -183 0
-184 183 0
-184 -141 0
185 -184 0
-185 184 0
186 142 -185 0
-186 185 0
-186 -142 0
187 -186 0
-187 186 0
188 143 -187 0
-188 187 0
-188 -143 0
189 -188 0
-189 188 0
190 144 -189 0
-190 189 0
-190 -144 0
191 -190 0
-191 190 0
192 145 -191 0
-192 191 0
-192 -145 0
193 -192 0
-193 192 0
194 146 -193 0
-194 193 0
-194 -146 0
195 -194 0
-195 194 0
196 147 -195 0
-196 195 0
-196 -147 0
197 -196 0
-197 196 0
198 148 -197 0
-198 197 0
-198 -148 0
199 -198 0
-199 198 0
200 149 -199 0
-200 199 0
-200 -149 0
201 -200 0
-201 200 0
202 150 -201 0
-202 201 0
-202 -150 0
203 -202 0
-203 202 0
204 151 -203 0
-204 203 0
-204 -151 0
205 -204 0
-205 204 0
206 152 -205 0
-206 205 0
-206 -152 0
207 -206 0
-207 206 0
208 153 -207 0
-208 207 0
-208 -153 0
209 -208 0
-209 208 0
210 154 -209 0
-210 209 0
-210 -154 0
211 -210 0
-211 210 0
212 155 -211 0
-212 211 0
-212 -155 0
213 -212 0
-213 212 0
214 156 -213 0
-214 213 0
-214 -156 0
215 -214 0
-215 214 0
216 157 -215 0
-216 215 0
-216 -157 0
217 -216 0
-217 216 0
218 158 -217 0
-218 217 0
-218 -158 0
219 -218 0
-219 218 0
220 159 -219 0
-220 219 0
-220 -159 0
221 -220 0
-221 220 0
222 160 -221 0
-222 221 0
-222 -160 0
223 -222 0
-223 222 0
225 0
-225 223 -224 0
258 -257 0
258 -256 0
258 -255 0
258 -254 0
258 -253 0
258 -252 0
258 -251 0
258 -250 0
258 -249 0
258 -248 0
258 -247 0
258 -246 0
258 -245 0
258 -244 0
258 -243 0
258 -242 0
258 -241 0
258 -240 0
258 -239 0
258 -238 0
258 -237 0
258 -236 0
258 -235 0
258 -234 0
258 -233 0
258 -232 0
258 -231 0
258 -230 0
258 -229 0
258 -228 0
258 -227 0
258 -226 0
-258 226 227 228 229 230 231 232 233 234 235 236 237 238 239 240 241 242 243 244 245 246 247 248 249 250 251 252 253 254 255 256 257 0
260 0
-260 -258 -259 0
261 1 -129 0
261 -1 129 0
-261 1 129 0
-261 -1 -129 0
262 2 -130 0
262 -2 130 0
-262 2 130 0
-262 -2 -130 0
263 3 -131 0
263 -3 131 0
-263 3 131 0
-263 -3 -131 0
264 4 -132 0
264 -4 132 0
-264 4 132 0
-264 -4 -132 0
265 5 -133 0
265 -5 133 0
-265 5 133 0
-265 -5 -133 0
266 6 -134 0
266 -6 134 0
-266 6 134 0
-266 -6 -134 0
267 7 -135 0
267 -7 135 0
-267 7 135 0
-267 -7 -135 0
268 8 -136 0
268 -8 136 0
-268 8 136 0
-268 -8 -136 0
269 9 -137 0
269 -9 137 0
-269 9 137 0
-269 -9 -137 0
270 10 -138 0
270 -10 138 0
-270 10 138 0
-270 -10 -138 0
271 11 -139 0
271 -11 139 0
-271 11 139 0
-271 -11 -139 0
272 12 -140 0
272 -12 140 0
-272 12 140 0
-272 -12 -140 0
273 13 -141 0
273 -13 141 0
-273 13 141 0
-273 -13 -141 0
274 14 -142 0
274 -14 142 0
-274 14 142 0
-274 -14 -142 0
275 15 -143 0
275 -15 143 0
-275 15 143 0
-275 -15 -143 0
276 16 -144 0
276 -16 144 0
-276 16 144 0
-276 -16 -144 0
277 17 -145 0
277 -17 145 0
-277 17 145 0
-277 -17 -145 0
278 18 -146 0
278 -18 146 0
-278 18 146 0
-278 -18 -146 0
279 19 -147 0
279 -19 147 0
-279 19 147 0
-279 -19 -147 0
280 20 -148 0
280 -20 148 0
-280 20 148 0
-280 -20 -148 0
281 21 -149 0
281 -21 149 0
-281 21 149 0
-281 -21 -149 0
282 22 -150 0
282 -22 150 0
-282 22 150 0
-282 -22 -150 0
283 23 -151 0
283 -23 151 0
-283 23 151 0
-283 -23 -151 0
284 24 -152 0
284 -24 152 0
-284 24 152 0
-284 -24 -152 0
285 25 -153 0
285 -25 153 0
-285 25 153 0
-285 -25 -153 0
286 26 -154 0
286 -26 154 0
-286 26 154 0
-286 -26 -154 0
287 27 -155 0
287 -27 155 0
-287 27 155 0
-287 -27 -155 0
288 28 -156 0
288 -28 156 0
-288 28 156 0
-288 -28 -156 0
289 29 -157 0
289 -29 157 0
-289 29 157 0
-289 -29 -157 0
290 30 -158 0
290 -30 158 0
-290 30 158 0
-290 -30 -158 0
291 31 -159 0
291 -31 159 0
-291 31 159 0
-291 -31 -159 0
292 32 -160 0
292 -32 160 0
-292 32 160 0
-292 -32 -160 0
293 261 262 263 264 265 266 267 268 269 270 271 272 273 274 275 276 277 278 279 280 281 282 283 284 285 286 287 288 289 290 291 292 0
-293 -292 0
-293 -291 0
-293 -290 0
-293 -289 0
-293 -288 0
-293 -287 0
-293 -286 0
-293 -285 0
-293 -284 0
-293 -283 0
-293 -282 0
-293 -281 0
-293 -280 0
-293 -279 0
-293 -278 0
-293 -277 0
-293 -276 0
-293 -275 0
-293 -274 0
-293 -273 0
-293 -272 0
-293 -271 0
-293 -270 0
-293 -269 0
-293 -268 0
-293 -267 0
-293 -266 0
-293 -265 0
-293 -264 0
-293 -263 0
-293 -262 0
-293 -261 0
294 65 -129 0
294 -65 129 0
-294 65 129 0
-294 -65 -129 0
295 66 -130 0
295 -66 130 0
-295 66 130 0
-295 -66 -130 0
296 67 -131 0
296 -67 131 0
-296 67 131 0
-296 -67 -131 0
297 68 -132 0
297 -68 132 0
-297 68 132 0
-297 -68 -132 0
298 69 -133 0
298 -69 133 0
-298 69 133 0
-298 -69 -133 0
299 70 -134 0
299 -70 134 0
-299 70 134 0
-299 -70 -134 0
300 71 -135 0
300 -71 135 0
-300 71 135 0
-300 -71 -135 0
301 72 -136 0
301 -72 136 0
-301 72 136 0
-301 -72 -136 0
302 73 -137 0
302 -73 137 0
-302 73 137 0
-302 -73 -137 0
303 74 -138 0
303 -74 138 0
-303 74 138 0
-303 -74 -138 0
304 75 -139 0
304 -75 139 0
-304 75 139 0
-304 -75 -139 0
305 76 -140 0
305 -76 140 0
-305 76 140 0
-305 -76 -140 0
306 77 -141 0
306 -77 141 0
-306 77 141 0
-306 -77 -141 0
307 78 -142 0
307 -78 142 0
-307 78 142 0
-307 -78 -142 0
308 79 -143 0
308 -79 143 0
-308 79 143 0
-308 -79 -143 0
309 80 -144 0
309 -80 144 0
-309 80 144 0
-309 -80 -144 0
310 81 -145 0
310 -81 145 0
-310 81 145 0
-310 -81 -145 0
311 82 -146 0
311 -82 146 0
-311 82 146 0
-311 -82 -146 0
312 83 -147 0
312 -83 147 0
-312 83 147 0
-312 -83 -147 0
313 84 -148 0
313 -84 148 0
-313 84 148 0
-313 -84 -148 0
314 85 -149 0
314 -85 149 0
-314 85 149 0
-314 -85 -149 0
315 86 -150 0
315 -86 150 0
-315 86 150 0
-315 -86 -150 0
316 87 -151 0
316 -87 151 0
-316 87 151 0
-316 -87 -151 0
317 88 -152 0
317 -88 152 0
-317 88 152 0
-317 -88 -152 0
318 89 -153 0
318 -89 153 0
-318 89 153 0
-318 -89 -153 0
319 90 -154 0
319 -90 154 0
-319 90 154 0
-319 -90 -154 0
320 91 -155 0
320 -91 155 0
-320 91 155 0
-320 -91 -155 0
321 92 -156 0
321 -92 156 0
-321 92 156 0
-321 -92 -156 0
322 93 -157 0
322 -93 157 0
-322 93 157 0
-322 -93 -157 0
323 94 -158 0
323 -94 158 0
-323 94 158 0
-323 -94 -158 0
324 95 -159 0
324 -95 159 0
-324 95 159 0
-324 -95 -159 0
325 96 -160 0
325 -96 160 0
-325 96 160 0
-325 -96 -160 0
326 294 295 296 297 298 299 300 301 302 303 304 305 306 307 308 309 310 311 312 313 314 315 316 317 318 319 320 321 322 323 324 325 0
-326 -325 0
-326 -324 0
-326 -323 0
-326 -322 0
-326 -321 0
-326 -320 0
-326 -319 0
-326 -318 0
-326 -317 0
-326 -316 0
-326 -315 0
-326 -314 0
-326 -313 0
-326 -312 0
-326 -311 0
-326 -310 0
-326 -309 0
-326 -308 0
-326 -307 0
-326 -306 0
-326 -305 0
-326 -304 0
-326 -303 0
-326 -302 0
-326 -301 0
-326 -300 0
-326 -299 0
-326 -298 0
-326 -297 0
-326 -296 0
-326 -295 0
-326 -294 0
327 33 -226 0
327 -33 226 0
-327 33 226 0
-327 -33 -226 0
328 34 -227 0
328 -34 227 0
-328 34 227 0
-328 -34 -227 0
329 35 -228 0
329 -35 228 0
-329 35 228 0
-329 -35 -228 0
330 36 -229 0
330 -36 229 0
-330 36 229 0
-330 -36 -229 0
331 37 -230 0
331 -37 230 0
-331 37 230 0
-331 -37 -230 0
332 38 -231 0
332 -38 231 0
-332 38 231 0
-332 -38 -231 0
333 39 -232 0
333 -39 232 0
-333 39 232 0
-333 -39 -232 0
334 40 -233 0
334 -40 233 0
-334 40 233 0
-334 -40 -233 0
335 41 -234 0
335 -41 234 0
-335 41 234 0
-335 -41 -234 0
336 42 -235 0
336 -42 235 0
-336 42 235 0
-336 -42 -235 0
337 43 -236 0
337 -43 236 0
-337 43 236 0
-337 -43 -236 0
338 44 -237 0
338 -44 237 0
-338 44 237 0
-338 -44 -237 0
339 45 -238 0
339 -45 238 0
-339 45 238 0
-339 -45 -238 0
340 46 -239 0
340 -46 239 0
-340 46 239 0
-340 -46 -239 0
341 47 -240 0
341 -47 240 0
-341 47 240 0
-341 -47 -240 0
342 48 -241 0
342 -48 241 0
-342 48 241 0
-342 -48 -241 0
343 49 -242 0
343 -49 242 0
-343 49 242 0
-343 -49 -242 0
344 50 -243 0
344 -50 243 0
-344 50 243 0
-344 -50 -243 0
345 51 -244 0
345 -51 244 0
-345 51 244 0
-345 -51 -244 0
346 52 -245 0
346 -52 245 0
-346 52 245 0
-346 -52 -245 0
347 53 -246 0
347 -53 246 0
-347 53 246 0
-347 -53 -246 0
348 54 -247 0
348 -54 247 0
-348 54 247 0
-348 -54 -247 0
349 55 -248 0
349 -55 248 0
-349 55 248 0
-349 -55 -248 0
350 56 -249 0
350 -56 249 0
-350 56 249 0
-350 -56 -249 0
351 57 -250 0
351 -57 250 0
-351 57 250 0
-351 -57 -250 0
352 58 -251 0
352 -58 251 0
-352 58 251 0
-352 -58 -251 0
353 59 -252 0
353 -59 252 0
-353 59 252 0
-353 -59 -252 0
354 60 -253 0
354 -60 253 0
-354 60 253 0
-354 -60 -253 0
355 61 -254 0
355 -61 254 0
-355 61 254 0
-355 -61 -254 0
356 62 -255 0
356 -62 255 0
-356 62 255 0
-356 -62 -255 0
357 63 -256 0
357 -63 256 0
-357 63 256 0
-357 -63 -256 0
358 64 -257 0
358 -64 257 0
-358 64 257 0
-358 -64 -257 0
359 327 328 329 330 331 332 333 334 335 336 337 338 339 340 341 342 343 344 345 346 347 348 349 350 351 352 353 354 355 356 357 358 0
-359 -358 0
-359 -357 0
-359 -356 0
-359 -355 0
-359 -354 0
-359 -353 0
-359 -352 0
-359 -351 0
-359 -350 0
-359 -349 0
-359 -348 0
-359 -347 0
-359 -346 0
-359 -345 0
-359 -344 0
-359 -343 0
-359 -342 0
-359 -341 0
-359 -340 0
-359 -339 0
-359 -338 0
-359 -337 0
-359 -336 0
-359 -335 0
-359 -334 0
-359 -333 0
-359 -332 0
-359 -331 0
-359 -330 0
-359 -329 0
-359 -328 0
-359 -327 0
360 97 -226 0
360 -97 226 0
-360 97 226 0
-360 -97 -226 0
361 98 -227 0
361 -98 227 0
-361 98 227 0
-361 -98 -227 0
362 99 -228 0
362 -99 228 0
-362 99 228 0
-362 -99 -228 0
363 100 -229 0
363 -100 229 0
-363 100 229 0
-363 -100 -229 0
364 101 -230 0
364 -101 230 0
-364 101 230 0
-364 -101 -230 0
365 102 -231 0
365 -102 231 0
-365 102 231 0
-365 -102 -231 0
366 103 -232 0
366 -103 232 0
-366 103 232 0
-366 -103 -232 0
367 104 -233 0
367 -104 233 0
-367 104 233 0
-367 -104 -233 0
368 105 -234 0
368 -105 234 0
-368 105 234 0
-368 -105 -234 0
369 106 -235 0
369 -106 235 0
-369 106 235 0
-369 -106 -235 0
370 107 -236 0
370 -107 236 0
-370 107 236 0
-370 -107 -236 0
371 108 -237 0
371 -108 237 0
-371 108 237 0
-371 -108 -237 0
372 109 -238 0
372 -109 238 0
-372 109 238 0
-372 -109 -238 0
373 110 -239 0
373 -110 239 0
-373 110 239 0
-373 -110 -239 0
374 111 -240 0
374 -111 240 0
-374 111 240 0
-374 -111 -240 0
375 112 -241 0
375 -112 241 0
-375 112 241 0
-375 -112 -241 0
376 113 -242 0
376 -113 242 0
-376 113 242 0
-376 -113 -242 0
377 114 -243 0
377 -114 243 0
-377 114 243 0
-377 -114 -243 0
378 115 -244 0
378 -115 244 0
-378 115 244 0
-378 -115 -244 0
379 116 -245 0
379 -116 245 0
-379 116 245 0
-379 -116 -245 0
380 117 -246 0
380 -117 246 0
-380 117 246 0
-380 -117 -246 0
381 118 -247 0
381 -118 247 0
-381 118 247 0
-381 -118 -247 0
382 119 -248 0
382 -119 248 0
-382 119 248 0
-382 -119 -248 0
383 120 -249 0
383 -120 249 0
-383 120 249 0
-383 -120 -249 0
384 121 -250 0
384 -121 250 0
-384 121 250 0
-384 -121 -250 0
385 122 -251 0
385 -122 251 0
-385 122 251 0
-385 -122 -251 0
386 123 -252 0
386 -123 252 0
-386 123 252 0
-386 -123 -252 0
387 124 -253 0
387 -124 253 0
-387 124 253 0
-387 -124 -253 0
388 125 -254 0
388 -125 254 0
-388 125 254 0
-388 -125 -254 0
389 126 -255 0
389 -126 255 0
-389 126 255 0
-389 -126 -255 0
390 127 -256 0
390 -127 256 0
-390 127 256 0
-390 -127 -256 0
391 128 -257 0
391 -128 257 0
-391 128 257 0
-391 -128 -257 0
392 360 361 362 363 364 365 366 367 368 369 370 371 372 373 374 375 376 377 378 379 380 381 382 383 384 385 386 387 388 389 390 391 0
-392 -391 0
-392 -390 0
-392 -389 0
-392 -388 0
-392 -387 0
-392 -386 0
-392 -385 0
-392 -384 0
-392 -383 0
-392 -382 0
-392 -381 0
-392 -380 0
-392 -379 0
-392 -378 0
-392 -377 0
-392 -376 0
-392 -375 0
-392 -374 0
-392 -373 0
-392 -372 0
-392 -371 0
-392 -370 0
-392 -369 0
-392 -368 0
-392 -367 0
-392 -366 0
-392 -365 0
-392 -364 0
-392 -363 0
-392 -362 0
-392 -361 0
-392 -360 0
393 223 258 -293 -326 -359 -392 0
-393 392 0
-393 359 0
-393 326 0
-393 293 0
-393 -258 0
-393 -223 0
458 394 -426 0
-458 -394 0
-458 426 0
459 394 0
459 -426 0
459 -458 0
-459 -394 426 458 0
460 395 -427 0
-460 -395 0
-460 427 0
461 -427 -459 0
-461 459 0
-461 427 0
462 395 -459 0
-462 459 0
-462 -395 0
463 -462 0
463 -461 0
463 -460 0
-463 460 461 462 0
464 396 -428 0
-464 -396 0
-464 428 0
465 -428 -463 0
-465 463 0
-465 428 0
466 396 -463 0
-466 463 0
-466 -396 0
467 -466 0
467 -465 0
467 -464 0
-467 464 465 466 0
468 397 -429 0
-468 -397 0
-468 429 0
469 -429 -467 0
-469 467 0
-469 429 0
470 397 -467 0
-470 467 0
-470 -397 0
471 -470 0
471 -469 0
471 -468 0
-471 468 469 470 0
472 398 -430 0
-472 -398 0
-472 430 0
473 -430 -471 0
-473 471 0
-473 430 0
474 398 -471 0
-474 471 0
-474 -398 0
475 -474 0
475 -473 0
475 -472 0
-475 472 473 474 0
476 399 -431 0
-476 -399 0
-476 431 0
477 -431 -475 0
-477 475 0
-477 431 0
478 399 -475 0
-478 475 0
-478 -399 0
479 -478 0
479 -477 0
479 -476 0
-479 476 477 478 0
480 400 -432 0
-480 -400 0
-480 432 0
481 -432 -479 0
-481 479 0
-481 432 0
482 400 -479 0
-482 479 0
-482 -400 0
483 -482 0
483 -481 0
483 -480 0
-483 480 481 482 0
484 401 -433 0
-484 -401 0
-484 433 0
485 -433 -483 0
-485 483 0
-485 433 0
486 401 -483 0
-486 483 0
-486 -401 0
487 -486 0
487 -485 0
487 -484 0
-487 484 485 486 0
488 402 -434 0
-488 -402 0
-488 434 0
489 -434 -487 0
-489 487 0
-489 434 0
490 402 -487 0
-490 487 0
-490 -402 0
491 -490 0
491 -489 0
491 -488 0
-491 488 489 490 0
492 403 -435 0
-492 -403 0
-492 435 0
493 -435 -491 0
-493 491 0
-493 435 0
494 403 -491 0
-494 491 0
-494 -403 0
495 -494 0
495 -493 0
495 -492 0
-495 492 493 494 0
496 404 -436 0
-496 -404 0
-496 436 0
497 -436 -495 0
-497 495 0
-497 436 0
498 404 -495 0
-498 495 0
-498 -404 0
499 -498 0
499 -497 0
499 -496 0
-499 496 497 498 0
500 405 -437 0
-500 -405 0
-500 437 0
501 -437 -499 0
-501 499 0
-501 437 0
502 405 -499 0
-502 499 0
-502 -405 0
503 -502 0
503 -501 0
503 -500 0
-503 500 501 502 0
504 406 -438 0
-504 -406 0
-504 438 0
505 -438 -503 0
-505 503 0
-505 438 0
506 406 -503 0
-506 503 0
-506 -406 0
507 -506 0
507 -505 0
507 -504 0
-507 504 505 506 0
508 407 -439 0
-508 -407 0
-508 439 0
509 -439 -507 0
-509 507 0
-509 439 0
510 407 -507 0
-510 507 0
-510 -407 0
511 -510 0
511 -509 0
511 -508 0
-511 508 509 510 0
512 408 -440 0
-512 -408 0
-512 440 0
513 -440 -511 0
-513 511 0
-513 440 0
514 408 -511 0
-514 511 0
-514 -408 0
515 -514 0
515 -513 0
515 -512 0
-515 512 513 514 0
516 409 -441 0
-516 -409 0
-516 441 0
517 -441 -515 0
-517 515 0
-517 441 0
518 409 -515 0
-518 515 0
-518 -409 0
519 -518 0
519 -517 0
519 -516 0
-519 516 517 518 0
520 410 -442 0
-520 -410 0
-520 442 0
521 -442 -519 0
-521 519 0
-521 442 0
522 410 -519 0
-522 519 0
-522 -410 0
523 -522 0
523 -521 0
523 -520 0
-523 520 521 522 0
524 411 -443 0
-524 -411 0
-524 443 0
525 -443 -523 0
-525 523 0
-525 443 0
526 411 -523 0
-526 523 0
-526 -411 0
527 -526 0
527 -525 0
527 -524 0
-527 524 525 526 0
528 412 -444 0
-528 -412 0
-528 444 0
529 -444 -527 0
-529 527 0
-529 444 0
530 412 -527 0
-530 527 0
-530 -412 0
531 -530 0
531 -529 0
531 -528 0
-531 528 529 530 0
532 413 -445 0
-532 -413 0
-532 445 0
533 -445 -531 0
-533 531 0
-533 445 0
534 413 -531 0
-534 531 0
-534 -413 0
535 -534 0
535 -533 0
535 -532 0
-535 532 533 534 0
536 414 -446 0
-536 -414 0
-536 446 0
537 -446 -535 0
-537 535 0
-537 446 0
538 414 -535 0
-538 535 0
-538 -414 0
539 -538 0
539 -537 0
539 -536 0
-539 536 537 538 0
540 415 -447 0
-540 -415 0
-540 447 0
541 -447 -539 0
-541 539 0
-541 447 0
542 415 -539 0
-542 539 0
-542 -415 0
543 -542 0
543 -541 0
543 -540 0
-543 540 541 542 0
544 416 -448 0
-544 -416 0
-544 448 0
545 -448 -543 0
-545 543 0
-545 448 0
546 416 -543 0
-546 543 0
-546 -416 0
547 -546 0
547 -545 0
547 -544 0
-547 544 545 546 0
548 417 -449 0
-548 -417 0
-548 449 0
549 -449 -547 0
-549 547 0
-549 449 0
550 417 -547 0
-550 547 0
-550 -417 0
551 -550 0
551 -549 0
551 -548 0
-551 548 549 550 0
552 418 -450 0
-552 -418 0
-552 450 0
553 -450 -551 0
-553 551 0
-553 450 0
554 418 -551 0
-554 551 0
-554 -418 0
555 -554 0
555 -553 0
555 -552 0
-555 552 553 554 0
556 419 -451 0
-556 -419 0
-556 451 0
557 -451 -555 0
-557 555 0
-557 451 0
558 419 -555 0
-558 555 0
-558 -419 0
559 -558 0
559 -557 0
559 -556 0
-559 556 557 558 0
560 420 -452 0
-560 -420 0
-560 452 0
561 -452 -559 0
-561 559 0
-561 452 0
562 420 -559 0
-562 559 0
-562 -420 0
563 -562 0
563 -561 0
563 -560 0
-563 560 561 562 0
564 421 -453 0
-564 -421 0
-564 453 0
565 -453 -563 0
-565 563 0
-565 453 0
566 421 -563 0
-566 563 0
-566 -421 0
567 -566 0
567 -565 0
567 -564 0
-567 564 565 566 0
568 422 -454 0
-568 -422 0
-568 454 0
569 -454 -567 0
-569 567 0
-569 454 0
570 422 -567 0
-570 567 0
-570 -422 0
571 -570 0
571 -569 0
571 -568 0
-571 568 569 570 0
572 423 -455 0
-572 -423 0
-572 455 0
573 -455 -571 0
-573 571 0
-573 455 0
574 423 -571 0
-574 571 0
-574 -423 0
575 -574 0
575 -573 0
575 -572 0
-575 572 573 574 0
576 424 -456 0
-576 -424 0
-576 456 0
577 -456 -575 0
-577 575 0
-577 456 0
578 424 -575 0
-578 575 0
-578 -424 0
579 -578 0
579 -577 0
579 -576 0
-579 576 577 578 0
580 425 -457 0
-580 -425 0
-580 457 0
581 -457 -579 0
-581 579 0
-581 457 0
582 425 -579 0
-582 579 0
-582 -425 0
583 -582 0
583 -581 0
583 -580 0
-583 580 581 582 0
585 0
-585 583 -584 0
650 586 -618 0
-650 -586 0
-650 618 0
651 586 0
651 -618 0
651 -650 0
-651 -586 618 650 0
652 587 -619 0
-652 -587 0
-652 619 0
653 -619 -651 0
-653 651 0
-653 619 0
654 587 -651 0
-654 651 0
-654 -587 0
655 -654 0
655 -653 0
655 -652 0
-655 652 653 654 0
656 588 -620 0
-656 -588 0
-656 620 0
657 -620 -655 0
-657 655 0
-657 620 0
658 588 -655 0
-658 655 0
-658 -588 0
659 -658 0
659 -657 0
659 -656 0
-659 656 657 658 0
660 589 -621 0
-660 -589 0
-660 621 0
661 -621 -659 0
-661 659 0
-661 621 0
662 589 -659 0
-662 659 0
-662 -589 0
663 -662 0
663 -661 0
663 -660 0
-663 660 661 662 0
664 590 -622 0
-664 -590 0
-664 622 0
665 -622 -663 0
-665 663 0
-665 622 0
666 590 -663 0
-666 663 0
-666 -590 0
667 -666 0
667 -665 0
667 -664 0
-667 664 665 666 0
668 591 -623 0
-668 -591 0
-668 623 0
669 -623 -667 0
-669 667 0
-669 623 0
670 591 -667 0
-670 667 0
-670 -591 0
671 -670 0
671 -669 0
671 -668 0
-671 668 669 670 0
672 592 -624 0
-672 -592 0
-672 624 0
673 -624 -671 0
-673 671 0
-673 624 0
674 592 -671 0
-674 671 0
-674 -592 0
675 -674 0
675 -673 0
675 -672 0
-675 672 673 674 0
676 593 -625 0
-676 -593 0
-676 625 0
677 -625 -675 0
-677 675 0
-677 625 0
678 593 -675 0
-678 675 0
-678 -593 0
679 -678 0
679 -677 0
679 -676 0
-679 676 677 678 0
680 594 -626 0
-680 -594 0
-680 626 0
681 -626 -679 0
-681 679 0
-681 626 0
682 594 -679 0
-682 679 0
-682 -594 0
683 -682 0
683 -681 0
683 -680 0
-683 680 681 682 0
684 595 -627 0
-684 -595 0
-684 627 0
685 -627 -683 0
-685 683 0
-685 627 0
686 595 -683 0
-686 683 0
-686 -595 0
687 -686 0
687 -685 0
687 -684 0
-687 684 685 686 0
688 596 -628 0
-688 -596 0
-688 628 0
689 -628 -687 0
-689 687 0
-689 628 0
690 596 -687 0
-690 687 0
-690 -596 0
691 -690 0
691 -689 0
691 -688 0
-691 688 689 690 0
692 597 -629 0
-692 -597 0
-692 629 0
693 -629 -691 0
-693 691 0
-693 629 0
694 597 -691 0
-694 691 0
-694 -597 0
695 -694 0
695 -693 0
695 -692 0
-695 692 693 694 0
696 598 -630 0
-696 -598 0
-696 630 0
697 -630 -695 0
-697 695 0
-697 630 0
698 598 -695 0
-698 695 0
-698 -598 0
699 -698 0
699 -697 0
699 -696 0
-699 696 697 698 0
700 599 -631 0
-700 -599 0
-700 631 0
701 -631 -699 0
-701 699 0
-701 631 0
702 599 -699 0
-702 699 0
-702 -599 0
703 -702 0
703 -701 0
703 -700 0
-703 700 701 702 0
704 600 -632 0
-704 -600 0
-704 632 0
705 -632 -703 0
-705 703 0
-705 632 0
706 600 -703 0
-706 703 0
-706 -600 0
707 -706 0
707 -705 0
707 -704 0
-707 704 705 706 0
708 601 -633 0
-708 -601 0
-708 633 0
709 -633 -707 0
-709 707 0
-709 633 0
710 601 -707 0
-710 707 0
-710 -601 0
711 -710 0
711 -709 0
711 -708 0
-711 708 709 710 0
712 602 -634 0
-712 -602 0
-712 634 0
713 -634 -711 0
-713 711 0
-713 634 0
714 602 -711 0
-714 711 0
-714 -602 0
715 -714 0
715 -713 0
715 -712 0
-715 712 713 714 0
716 603 -635 0
-716 -603 0
-716 635 0
717 -635 -715 0
-717 715 0
-717 635 0
718 603 -715 0
-718 715 0
-718 -603 0
719 -718 0
719 -717 0
719 -716 0
-719 716 717 718 0
720 604 -636 0
-720 -604 0
-720 636 0
721 -636 -719 0
-721 719 0
-721 636 0
722 604 -719 0
-722 719 0
-722 -604 0
723 -722 0
723 -721 0
723 -720 0
-723 720 721 722 0
724 605 -637 0
-724 -605 0
-724 637 0
725 -637 -723 0
-725 723 0
-725 637 0
726 605 -723 0
-726 723 0
-726 -605 0
727 -726 0
727 -725 0
727 -724 0
-727 724 725 726 0
728 606 -638 0
-728 -606 0
-728 638 0
729 -638 -727 0
-729 727 0
-729 638 0
730 606 -727 0
-730 727 0
-730 -606 0
731 -730 0
731 -729 0
731 -728 0
-731 728 729 730 0
732 607 -639 0
-732 -607 0
-732 639 0
733 -639 -731 0
-733 731 0
-733 639 0
734 607 -731 0
-734 731 0
-734 -607 0
735 -734 0
735 -733 0
735 -732 0
-735 732 733 734 0
736 608 -640 0
-736 -608 0
-736 640 0
737 -640 -735 0
-737 735 0
-737 640 0
738 608 -735 0
-738 735 0
-738 -608 0
739 -738 0
739 -737 0
739 -736 0
-739 736 737 738 0
740 609 -641 0
-740 -609 0
-740 641 0
741 -641 -739 0
-741 739 0
-741 641 0
742 609 -739 0
-742 739 0
-742 -609 0
743 -742 0
743 -741 0
743 -740 0
-743 740 741 742 0
744 610 -642 0
-744 -610 0
-744 642 0
745 -642 -743 0
-745 743 0
-745 642 0
746 610 -743 0
-746 743 0
-746 -610 0
747 -746 0
747 -745 0
747 -744 0
-747 744 745 746 0
748 611 -643 0
-748 -611 0
-748 643 0
749 -643 -747 0
-749 747 0
-749 643 0
750 611 -747 0
-750 747 0
-750 -611 0
751 -750 0
751 -749 0
751 -748 0
-751 748 749 750 0
752 612 -644 0
-752 -612 0
-752 644 0
753 -644 -751 0
-753 751 0
-753 644 0
754 612 -751 0
-754 751 0
-754 -612 0
755 -754 0
755 -753 0
755 -752 0
-755 752 753 754 0
756 613 -645 0
-756 -613 0
-756 645 0
757 -645 -755 0
-757 755 0
-757 645 0
758 613 -755 0
-758 755 0
-758 -613 0
759 -758 0
759 -757 0
759 -756 0
-759 756 757 758 0
760 614 -646 0
-760 -614 0
-760 646 0
761 -646 -759 0
-761 759 0
-761 646 0
762 614 -759 0
-762 759 0
-762 -614 0
763 -762 0
763 -761 0
763 -760 0
-763 760 761 762 0
764 615 -647 0
-764 -615 0
-764 647 0
765 -647 -763 0
-765 763 0
-765 647 0
766 615 -763 0
-766 763 0
-766 -615 0
767 -766 0
767 -765 0
767 -764 0
-767 764 765 766 0
768 616 -648 0
-768 -616 0
-768 648 0
769 -648 -767 0
-769 767 0
-769 648 0
770 616 -767 0
-770 767 0
-770 -616 0
771 -770 0
771 -769 0
771 -768 0
-771 768 769 770 0
772 617 -649 0
-772 -617 0
-772 649 0
773 -649 -771 0
-773 771 0
-773 649 0
774 617 -771 0
-774 771 0
-774 -617 0
775 -774 0
775 -773 0
775 -772 0
-775 772 773 774 0
777 0
-777 775 -776 0
778 -393 0
778 583 775 0
-778 -775 0
-778 -583 0
779 1 -65 0
779 -1 65 0
-779 1 65 0
-779 -1 -65 0
780 2 -66 0
780 -2 66 0
-780 2 66 0
-780 -2 -66 0
781 3 -67 0
781 -3 67 0
-781 3 67 0
-781 -3 -67 0
782 4 -68 0
782 -4 68 0
-782 4 68 0
-782 -4 -68 0
783 5 -69 0
783 -5 69 0
-783 5 69 0
-783 -5 -69 0
784 6 -70 0
784 -6 70 0
-784 6 70 0
-784 -6 -70 0
785 7 -71 0
785 -7 71 0
-785 7 71 0
-785 -7 -71 0
786 8 -72 0
786 -8 72 0
-786 8 72 0
-786 -8 -72 0
787 9 -73 0
787 -9 73 0
-787 9 73 0
-787 -9 -73 0
788 10 -74 0
788 -10 74 0
-788 10 74 0
-788 -10 -74 0
789 11 -75 0
789 -11 75 0
-789 11 75 0
-789 -11 -75 0
790 12 -76 0
790 -12 76 0
-790 12 76 0
-790 -12 -76 0
791 13 -77 0
791 -13 77 0
-791 13 77 0
-791 -13 -77 0
792 14 -78 0
792 -14 78 0
-792 14 78 0
-792 -14 -78 0
793 15 -79 0
793 -15 79 0
-793 15 79 0
-793 -15 -79 0
794 16 -80 0
794 -16 80 0
-794 16 80 0
-794 -16 -80 0
795 17 -81 0
795 -17 81 0
-795 17 81 0
-795 -17 -81 0
796 18 -82 0
796 -18 82 0
-796 18 82 0
-796 -18 -82 0
797 19 -83 0
797 -19 83 0
-797 19 83 0
-797 -19 -83 0
798 20 -84 0
798 -20 84 0
-798 20 84 0
-798 -20 -84 0
799 21 -85 0
799 -21 85 0
-799 21 85 0
-799 -21 -85 0
800 22 -86 0
800 -22 86 0
-800 22 86 0
-800 -22 -86 0
801 23 -87 0
801 -23 87 0
-801 23 87 0
-801 -23 -87 0
802 24 -88 0
802 -24 88 0
-802 24 88 0
-802 -24 -88 0
803 25 -89 0
803 -25 89 0
-803 25 89 0
-803 -25 -89 0
804 26 -90 0
804 -26 90 0
-804 26 90 0
-804 -26 -90 0
805 27 -91 0
805 -27 91 0
-805 27 91 0
-805 -27 -91 0
806 28 -92 0
806 -28 92 0
-806 28 92 0
-806 -28 -92 0
807 29 -93 0
807 -29 93 0
-807 29 93 0
-807 -29 -93 0
808 30 -94 0
808 -30 94 0
-808 30 94 0
-808 -30 -94 0
809 31 -95 0
809 -31 95 0
-809 31 95 0
-809 -31 -95 0
810 32 -96 0
810 -32 96 0
-810 32 96 0
-810 -32 -96 0
811 779 780 781 782 783 784 785 786 787 788 789 790 791 792 793 794 795 796 797 798 799 800 801 802 803 804 805 806 807 808 809 810 0
-811 -810 0
-811 -809 0
-811 -808 0
-811 -807 0
-811 -806 0
-811 -805 0
-811 -804 0
-811 -803 0
-811 -802 0
-811 -801 0
-811 -800 0
-811 -799 0
-811 -798 0
-811 -797 0
-811 -796 0
-811 -795 0
-811 -794 0
-811 -793 0
-811 -792 0
-811 -791 0
-811 -790 0
-811 -789 0
-811 -788 0
-811 -787 0
-811 -786 0
-811 -785 0
-811 -784 0
-811 -783 0
-811 -782 0
-811 -781 0
-811 -780 0
-811 -779 0
812 394 -426 0
812 -394 426 0
-812 394 426 0
-812 -394 -426 0
813 395 -427 0
813 -395 427 0
-813 395 427 0
-813 -395 -427 0
814 396 -428 0
814 -396 428 0
-814 396 428 0
-814 -396 -428 0
815 397 -429 0
815 -397 429 0
-815 397 429 0
-815 -397 -429 0
816 398 -430 0
816 -398 430 0
-816 398 430 0
-816 -398 -430 0
817 399 -431 0
817 -399 431 0
-817 399 431 0
-817 -399 -431 0
818 400 -432 0
818 -400 432 0
-818 400 432 0
-818 -400 -432 0
819 401 -433 0
819 -401 433 0
-819 401 433 0
-819 -401 -433 0
820 402 -434 0
820 -402 434 0
-820 402 434 0
-820 -402 -434 0
821 403 -435 0
821 -403 435 0
-821 403 435 0
-821 -403 -435 0
822 404 -436 0
822 -404 436 0
-822 404 436 0
-822 -404 -436 0
823 405 -437 0
823 -405 437 0
-823 405 437 0
-823 -405 -437 0
824 406 -438 0
824 -406 438 0
-824 406 438 0
-824 -406 -438 0
825 407 -439 0
825 -407 439 0
-825 407 439 0
-825 -407 -439 0
826 408 -440 0
826 -408 440 0
-826 408 440 0
-826 -408 -440 0
827 409 -441 0
827 -409 441 0
-827 409 441 0
-827 -409 -441 0
828 410 -442 0
828 -410 442 0
-828 410 442 0
-828 -410 -442 0
829 411 -443 0
829 -411 443 0
-829 411 443 0
-829 -411 -443 0
830 412 -444 0
830 -412 444 0
-830 412 444 0
-830 -412 -444 0
831 413 -445 0
831 -413 445 0
-831 413 445 0
-831 -413 -445 0
832 414 -446 0
832 -414 446 0
-832 414 446 0
-832 -414 -446 0
833 415 -447 0
833 -415 447 0
-833 415 447 0
-833 -415 -447 0
834 416 -448 0
834 -416 448 0
-834 416 448 0
-834 -416 -448 0
835 417 -449 0
835 -417 449 0
-835 417 449 0
-835 -417 -449 0
836 418 -450 0
836 -418 450 0
-836 418 450 0
-836 -418 -450 0
837 419 -451 0
837 -419 451 0
-837 419 451 0
-837 -419 -451 0
838 420 -452 0
838 -420 452 0
-838 420 452 0
-838 -420 -452 0
839 421 -453 0
839 -421 453 0
-839 421 453 0
-839 -421 -453 0
840 422 -454 0
840 -422 454 0
-840 422 454 0
-840 -422 -454 0
841 423 -455 0
841 -423 455 0
-841 423 455 0
-841 -423 -455 0
842 424 -456 0
842 -424 456 0
-842 424 456 0
-842 -424 -456 0
843 425 -457 0
843 -425 457 0
-843 425 457 0
-843 -425 -457 0
844 -811 0
844 812 813 814 815 816 817 818 819 820 821 822 823 824 825 826 827 828 829 830 831 832 833 834 835 836 837 838 839 840 841 842 843 0
-844 -843 0
-844 -842 0
-844 -841 0
-844 -840 0
-844 -839 0
-844 -838 0
-844 -837 0
-844 -836 0
-844 -835 0
-844 -834 0
-844 -833 0
-844 -832 0
-844 -831 0
-844 -830 0
-844 -829 0
-844 -828 0
-844 -827 0
-844 -826 0
-844 -825 0
-844 -824 0
-844 -823 0
-844 -822 0
-844 -821 0
-844 -820 0
-844 -819 0
-844 -818 0
-844 -817 0
-844 -816 0
-844 -815 0
-844 -814 0
-844 -813 0
-844 -812 0
845 33 -97 0
845 -33 97 0
-845 33 97 0
-845 -33 -97 0
846 34 -98 0
846 -34 98 0
-846 34 98 0
-846 -34 -98 0
847 35 -99 0
847 -35 99 0
-847 35 99 0
-847 -35 -99 0
848 36 -100 0
848 -36 100 0
-848 36 100 0
-848 -36 -100 0
849 37 -101 0
849 -37 101 0
-849 37 101 0
-849 -37 -101 0
850 38 -102 0
850 -38 102 0
-850 38 102 0
-850 -38 -102 0
851 39 -103 0
851 -39 103 0
-851 39 103 0
-851 -39 -103 0
852 40 -104 0
852 -40 104 0
-852 40 104 0
-852 -40 -104 0
853 41 -105 0
853 -41 105 0
-853 41 105 0
-853 -41 -105 0
854 42 -106 0
854 -42 106 0
-854 42 106 0
-854 -42 -106 0
855 43 -107 0
855 -43 107 0
-855 43 107 0
-855 -43 -107 0
856 44 -108 0
856 -44 108 0
-856 44 108 0
-856 -44 -108 0
857 45 -109 0
857 -45 109 0
-857 45 109 0
-857 -45 -109 0
858 46 -110 0
858 -46 110 0
-858 46 110 0
-858 -46 -110 0
859 47 -111 0
859 -47 111 0
-859 47 111 0
-859 -47 -111 0
860 48 -112 0
860 -48 112 0
-860 48 112 0
-860 -48 -112 0
861 49 -113 0
861 -49 113 0
-861 49 113 0
-861 -49 -113 0
862 50 -114 0
862 -50 114 0
-862 50 114 0
-862 -50 -114 0
863 51 -115 0
863 -51 115 0
-863 51 115 0
-863 -51 -115 0
864 52 -116 0
864 -52 116 0
-864 52 116 0
-864 -52 -116 0
865 53 -117 0
865 -53 117 0
-865 53 117 0
-865 -53 -117 0
866 54 -118 0
866 -54 118 0
-866 54 118 0
-866 -54 -118 0
867 55 -119 0
867 -55 119 0
-867 55 119 0
-867 -55 -119 0
868 56 -120 0
868 -56 120 0
-868 56 120 0
-868 -56 -120 0
869 57 -121 0
869 -57 121 0
-869 57 121 0
-869 -57 -121 0
870 58 -122 0
870 -58 122 0
-870 58 122 0
-870 -58 -122 0
871 59 -123 0
871 -59 123 0
-871 59 123 0
-871 -59 -123 0
872 60 -124 0
872 -60 124 0
-872 60 124 0
-872 -60 -124 0
873 61 -125 0
873 -61 125 0
-873 61 125 0
-873 -61 -125 0
874 62 -126 0
874 -62 126 0
-874 62 126 0
-874 -62 -126 0
875 63 -127 0
875 -63 127 0
-875 63 127 0
-875 -63 -127 0
876 64 -128 0
876 -64 128 0
-876 64 128 0
-876 -64 -128 0
877 845 846 847 848 849 850 851 852 853 854 855 856 857 858 859 860 861 862 863 864 865 866 867 868 869 870 871 872 873 874 875 876 0
-877 -876 0
-877 -875 0
-877 -874 0
-877 -873 0
-877 -872 0
-877 -871 0
-877 -870 0
-877 -869 0
-877 -868 0
-877 -867 0
-877 -866 0
-877 -865 0
-877 -864 0
-877 -863 0
-877 -862 0
-877 -861 0
-877 -860 0
-877 -859 0
-877 -858 0
-877 -857 0
-877 -856 0
-877 -855 0
-877 -854 0
-877 -853 0
-877 -852 0
-877 -851 0
-877 -850 0
-877 -849 0
-877 -848 0
-877 -847 0
-877 -846 0
-877 -845 0
878 586 -618 0
878 -586 618 0
-878 586 618 0
-878 -586 -618 0
879 587 -619 0
879 -587 619 0
-879 587 619 0
-879 -587 -619 0
880 588 -620 0
880 -588 620 0
-880 588 620 0
-880 -588 -620 0
881 589 -621 0
881 -589 621 0
-881 589 621 0
-881 -589 -621 0
882 590 -622 0
882 -590 622 0
-882 590 622 0
-882 -590 -622 0
883 591 -623 0
883 -591 623 0
-883 591 623 0
-883 -591 -623 0
884 592 -624 0
884 -592 624 0
-884 592 624 0
-884 -592 -624 0
885 593 -625 0
885 -593 625 0
-885 593 625 0
-885 -593 -625 0
886 594 -626 0
886 -594 626 0
-886 594 626 0
-886 -594 -626 0
887 595 -627 0
887 -595 627 0
-887 595 627 0
-887 -595 -627 0
888 596 -628 0
888 -596 628 0
-888 596 628 0
-888 -596 -628 0
889 597 -629 0
889 -597 629 0
-889 597 629 0
-889 -597 -629 0
890 598 -630 0
890 -598 630 0
-890 598 630 0
-890 -598 -630 0
891 599 -631 0
891 -599 631 0
-891 599 631 0
-891 -599 -631 0
892 600 -632 0
892 -600 632 0
-892 600 632 0
-892 -600 -632 0
893 601 -633 0
893 -601 633 0
-893 601 633 0
-893 -601 -633 0
894 602 -634 0
894 -602 634 0
-894 602 634 0
-894 -602 -634 0
895 603 -635 0
895 -603 635 0
-895 603 635 0
-895 -603 -635 0
896 604 -636 0
896 -604 636 0
-896 604 636 0
-896 -604 -636 0
897 605 -637 0
897 -605 637 0
-897 605 637 0
-897 -605 -637 0
898 606 -638 0
898 -606 638 0
-898 606 638 0
-898 -606 -638 0
899 607 -639 0
899 -607 639 0
-899 607 639 0
-899 -607 -639 0
900 608 -640 0
900 -608 640 0
-900 608 640 0
-900 -608 -640 0
901 609 -641 0
901 -609 641 0
-901 609 641 0
-901 -609 -641 0
902 610 -642 0
902 -610 642 0
-902 610 642 0
-902 -610 -642 0
903 611 -643 0
903 -611 643 0
-903 611 643 0
-903 -611 -643 0
904 612 -644 0
904 -612 644 0
-904 612 644 0
-904 -612 -644 0
905 613 -645 0
905 -613 645 0
-905 613 645 0
-905 -613 -645 0
906 614 -646 0
906 -614 646 0
-906 614 646 0
-906 -614 -646 0
907 615 -647 0
907 -615 647 0
-907 615 647 0
-907 -615 -647 0
908 616 -648 0
908 -616 648 0
-908 616 648 0
-908 -616 -648 0
909 617 -649 0
909 -617 649 0
-909 617 649 0
-909 -617 -649 0
910 -877 0
910 878 879 880 881 882 883 884 885 886 887 888 889 890 891 892 893 894 895 896 897 898 899 900 901 902 903 904 905 906 907 908 909 0
-910 -909 0
-910 -908 0
-910 -907 0
-910 -906 0
-910 -905 0
-910 -904 0
-910 -903 0
-910 -902 0
-910 -901 0
-910 -900 0
-910 -899 0
-910 -898 0
-910 -897 0
-910 -896 0
-910 -895 0
-910 -894 0
-910 -893 0
-910 -892 0
-910 -891 0
-910 -890 0
-910 -889 0
-910 -888 0
-910 -887 0
-910 -886 0
-910 -885 0
-910 -884 0
-910 -883 0
-910 -882 0
-910 -881 0
-910 -880 0
-910 -879 0
-910 -878 0
